&CONTROL
  calculation       = 'cp-wf',
  title             = "(H2O)128 Molecule: CP NVT MD with PBE0 at 300 K",
  restart_mode      = "restart",
  pseudo_dir        = '/home/junteng/qe-5.4-mira/pseudopotentials/',
  outdir            = './',
  prefix            = 'w128',
  nstep             = 50,
  iprint            = 1,
  isave             = 100,
  dt                = 2.D0,
  max_seconds       = 3300,
  ndr               = 51,
  ndw               = 52,
  tprnfor           = .TRUE.,
/
&SYSTEM
  ibrav             = 1,
  celldm(1)         = 29.6296d0,
  nat               = 384,
  ntyp              = 2,
  ecutwfc           = 85.D0,
  input_dft         = 'PBE0',
/
&ELECTRONS
  electron_dynamics = "verlet",
  emass             = 100.D0,
  emass_cutoff      = 10.D0,
/
&IONS
  ion_dynamics      = "verlet",
  ion_temperature   = 'nose',
  fnosep            = 60,
  tempw             = 300.0,
  nhpcl             = 4,
  nhptyp            = 2,
  ndega             = -3,
/
&WANNIER
  nit               = 60,
  calwf             = 3,
  tolw              = 1.D-6,
  nsteps            = 20,
  adapt             = .FALSE.
  wfdt              = 4.D0,
  wf_q              = 500,
  wf_friction       = 0.3D0,
! exx_ps_rcut_self  = 6.0D0,
! exx_ps_rcut_pair  = 5.0D0,
! exx_me_rcut_self  = 10.0D0,
! exx_me_rcut_pair  = 7.0D0,
  exx_ps_sl_self    = 12.0D0,
  exx_ps_sl_pair    = 10.0D0,
  exx_solver        = 'MG',
/
ATOMIC_SPECIES
O 16.0D0 O_HSCV_PBE-1.0.UPF
H  2.0D0 H_HSCV_PBE-1.0.UPF 
ATOMIC_POSITIONS {bohr}
O    0.89098700000000E+01     0.11358400000000E+02     0.17549000000000E+02
O    0.20371400000000E+02     0.25512800000000E+02     0.27164300000000E+02
O    0.31745800000000E+02     0.24312100000000E+02     0.27955200000000E+02
O    0.20798500000000E+02     0.30522200000000E+02     0.15911600000000E+02
O    0.15386400000000E+02     0.33200000000000E+02     0.45058600000000E+01
O    0.31280000000000E+00     0.19196400000000E+02     0.23277800000000E+02
O    0.36586900000000E+02     0.26335000000000E+02     0.20596900000000E+02
O    0.30330500000000E+02     0.30895300000000E+02     0.35013900000000E+01
O    0.25122200000000E+02    -0.66520700000000E+01     0.87820800000000E+01
O    0.12714300000000E+02     0.25309000000000E+02     0.15967100000000E+02
O    0.21078100000000E+02     0.29789800000000E+02     0.21806200000000E+02
O    0.24286000000000E+02     0.47681800000000E+01     0.21276700000000E+02
O    0.90641400000000E+01     0.16598400000000E+02     0.48297100000000E+01
O    0.19146800000000E+02     0.14236800000000E+02     0.17414400000000E+02
O    0.12223900000000E+02     0.13882900000000E+02     0.85253800000000E+01
O    0.91945500000000E+01    -0.74860600000000E+01     0.72146400000000E+01
O    0.21155400000000E+02     0.16851900000000E+02     0.22255500000000E+02
O    0.77255600000000E+01     0.22266300000000E+02     0.27893300000000E+01
O    0.86481500000000E+01     0.13586200000000E+02     0.24220600000000E+02
O    0.16803000000000E+02     0.31144700000000E+02     0.90702900000000E+01
O    0.16631700000000E+02     0.21545500000000E+02     0.16691400000000E+02
O   -0.36786600000000E+01     0.14870500000000E+02     0.23065300000000E+02
O    0.19423000000000E+02     0.64424800000000E+01    -0.76238700000000E+00
O    0.40094800000000E+01     0.17405200000000E+02     0.29323600000000E+02
O    0.20024400000000E+02     0.28541500000000E+02     0.11128600000000E+02
O    0.19282500000000E+02     0.21913700000000E+02     0.88025100000000E+01
O   -0.44848900000000E+00     0.20188400000000E+02     0.30816700000000E+02
O    0.14773900000000E+02     0.81492400000000E+01     0.26681500000000E+02
O   -0.51606800000000E+01     0.81757000000000E+01     0.29894800000000E+02
O    0.60231100000000E+01     0.43788200000000E+01     0.10962500000000E+02
O    0.99004000000000E+01     0.60184200000000E+01     0.19934100000000E+02
O    0.13974500000000E+02     0.26194900000000E+02     0.19715500000000E+01
O    0.24934600000000E+02     0.17235500000000E+02     0.64290200000000E+01
O    0.30917500000000E+02     0.13181200000000E+02     0.26195500000000E+02
O    0.76528600000000E+01     0.10331100000000E+01    -0.20618100000000E+00
O    0.29407800000000E+02     0.68751600000000E+01     0.21712700000000E+02
O    0.92690600000000E-01    -0.13339800000000E-01    -0.11243000000000E+01
O    0.22141300000000E+02     0.62441300000000E+01     0.15146800000000E+02
O    0.14684000000000E+02    -0.35450100000000E+01     0.10638800000000E+02
O    0.86930800000000E+01     0.90253800000000E+01     0.26368200000000E+01
O    0.12756900000000E+02     0.29136300000000E+02     0.23492100000000E+02
O   -0.22923200000000E+01     0.22855800000000E+02     0.21195900000000E+02
O    0.29977300000000E+02     0.97749300000000E+01     0.33802300000000E+02
O    0.10716600000000E+01     0.15217900000000E+02     0.18254000000000E+02
O    0.26441200000000E+01     0.72594900000000E+01     0.28471000000000E+02
O    0.19554200000000E+02     0.10646700000000E+02     0.77844100000000E+01
O    0.20026500000000E+02     0.18002300000000E+02     0.45065100000000E+00
O    0.20641900000000E+01    -0.19712400000000E+01     0.80865700000000E+01
O    0.34758700000000E+02     0.16937400000000E+02     0.13696700000000E+02
O    0.24345600000000E+02     0.27702600000000E+02     0.84285200000000E+01
O    0.24957600000000E+02     0.52310800000000E+01     0.81029600000000E+01
O    0.99555800000000E+01     0.17713600000000E+02     0.10726200000000E+02
O    0.86969800000000E+01     0.94730400000000E+01     0.85892900000000E+01
O    0.91264600000000E+01     0.27358200000000E+02     0.72885400000000E+01
O    0.19481300000000E+02    -0.44874100000000E+01     0.18530600000000E+02
O    0.87977400000000E+01     0.29811400000000E+02     0.11598400000000E+02
O    0.30271700000000E+02     0.29009400000000E+02     0.18358800000000E+02
O    0.17682900000000E+02     0.22996800000000E+02     0.42693800000000E+01
O    0.49043500000000E+01     0.21470400000000E+02     0.16857600000000E+02
O    0.72641700000000E+01     0.20798200000000E+02     0.25913100000000E+02
O    0.18873600000000E+02     0.12408600000000E+01     0.30543300000000E+02
O    0.22664300000000E+02     0.22473700000000E+02     0.15949600000000E+01
O    0.16189900000000E+02     0.33349000000000E+01     0.17200000000000E+02
O    0.17039700000000E+02     0.15277500000000E+02     0.81634000000000E+01
O    0.32897900000000E+02     0.35177100000000E+01    -0.39478400000000E+01
O    0.15101000000000E+02     0.28343700000000E+02     0.19285000000000E+02
O    0.51659700000000E+01     0.31312600000000E+02     0.21199400000000E+02
O    0.22325300000000E+02     0.12511000000000E+02     0.25864000000000E+01
O    0.22354900000000E+02     0.22945300000000E+02     0.23193100000000E+02
O    0.26305400000000E+02     0.13652600000000E+02     0.17773300000000E+02
O    0.13900200000000E+02     0.80995600000000E+01     0.35189900000000E+02
O    0.10912700000000E+02     0.36111800000000E+00     0.33454200000000E+01
O    0.23501300000000E+02     0.17059600000000E+02     0.15056600000000E+02
O    0.30432700000000E+02     0.51752700000000E+01     0.17506700000000E+02
O    0.12839900000000E+02     0.28389400000000E+01     0.12950300000000E+02
O   -0.12761000000000E+01     0.18772600000000E+01     0.98927300000000E+01
O   -0.46624100000000E+01     0.10234700000000E+02     0.25123400000000E+02
O    0.94492100000000E+01     0.16056100000000E+02     0.18715400000000E+02
O    0.66466400000000E+01     0.12315600000000E+02     0.29052200000000E+02
O    0.19988600000000E+02     0.11740300000000E+02    -0.60602300000000E+01
O    0.47280500000000E+01    -0.57253300000000E+01     0.99382200000000E+01
O    0.29278200000000E+02     0.11462500000000E+02     0.10700600000000E+02
O    0.15308900000000E+01     0.15993300000000E+02     0.10823900000000E+02
O    0.10861100000000E+02     0.23447400000000E+02     0.23467700000000E+02
O    0.59530300000000E+01     0.35694800000000E+02     0.16042400000000E+02
O    0.17144000000000E+02     0.11034500000000E+01    -0.41542700000000E+01
O    0.67029200000000E+01     0.25667400000000E+02     0.28942000000000E+02
O    0.69596400000000E+01     0.90652100000000E+01     0.22235800000000E+02
O    0.24502900000000E+02     0.27990600000000E+00    -0.14213100000000E+01
O    0.10659500000000E+02     0.19568400000000E+02     0.15424300000000E+02
O    0.19250400000000E+02     0.58129400000000E+01     0.10721200000000E+02
O    0.47535400000000E+01     0.10520800000000E+02     0.12158300000000E+02
O    0.25894700000000E+02     0.37697900000000E+01     0.29467200000000E+01
O   -0.20820600000000E+01     0.87858900000000E+01     0.14934000000000E+02
O   -0.81192200000000E+01     0.17715300000000E+02     0.10161000000000E+02
O    0.13539300000000E+02     0.94738700000000E+01     0.49002800000000E+02
O    0.26618100000000E+02     0.21692900000000E+02     0.14043500000000E+02
O    0.15123100000000E+02     0.34960900000000E+02     0.22302100000000E+02
O    0.93379000000000E+01     0.32583200000000E+02    -0.47429600000000E+01
O    0.19552000000000E+01     0.11257700000000E+02     0.21915000000000E+02
O    0.17384700000000E+02     0.10881800000000E+02     0.20094400000000E+01
O    0.13576800000000E+02     0.12914700000000E+02     0.23430800000000E+02
O    0.16584500000000E+01     0.61121500000000E+01     0.78825000000000E+01
O    0.26760100000000E+02     0.61592700000000E+00     0.22436500000000E+02
O    0.75789400000000E+01     0.26371800000000E+02     0.15095600000000E+02
O    0.40464400000000E+02     0.61673800000000E+01     0.28941700000000E+02
O    0.15059200000000E+02     0.26017300000000E+02     0.26782000000000E+02
O    0.19509500000000E+02     0.77282900000000E+01    -0.93298900000000E+01
O    0.10711600000000E+02     0.18317400000000E+02     0.29486000000000E+02
O    0.29390500000000E+02     0.14867000000000E+02     0.33416300000000E+02
O    0.16365000000000E+02     0.17740100000000E+02     0.26296000000000E+02
O    0.26644100000000E+02     0.45747900000000E+00     0.15713100000000E+02
O    0.24628800000000E+02    -0.41075000000000E+01     0.16952200000000E+02
O    0.15019600000000E+02     0.18221500000000E+02     0.28560700000000E+01
O   -0.40981600000000E+01     0.10497100000000E+02     0.71897300000000E+01
O    0.29691000000000E+02     0.20966200000000E+02     0.10487600000000E+02
O   -0.26110200000000E+01     0.15124800000000E+02    -0.79691100000000E+00
O    0.28272800000000E+02     0.26004900000000E+02     0.37181000000000E+01
O    0.12740000000000E+02     0.71385300000000E+01     0.10450400000000E+02
O    0.25971100000000E+02     0.20294400000000E+02     0.26323900000000E+02
O    0.34341400000000E+02     0.44635100000000E+01     0.32333600000000E+02
O    0.13737400000000E+02     0.19130700000000E+02     0.21019500000000E+02
O    0.14842500000000E+02     0.20835000000000E+02     0.11639600000000E+02
O    0.53609200000000E+01     0.17929500000000E+02     0.20728400000000E+02
O    0.15929400000000E+02     0.10804000000000E+02     0.14423400000000E+02
O    0.23060500000000E+01     0.24556300000000E+02     0.19780700000000E+02
O    0.46927800000000E+01     0.14721700000000E+02     0.35323200000000E+02
O    0.12278700000000E+02     0.13175600000000E+02     0.29699000000000E+02
H    0.10657600000000E+02     0.11160900000000E+02     0.17133700000000E+02
H    0.86988800000000E+01     0.10417900000000E+02     0.19093700000000E+02
H    0.21196300000000E+02     0.24583700000000E+02     0.28579100000000E+02
H    0.18512200000000E+02     0.25505600000000E+02     0.27289500000000E+02
H    0.31006200000000E+02     0.23653300000000E+02     0.26467600000000E+02
H    0.30829200000000E+02     0.25805700000000E+02     0.28451200000000E+02
H    0.19283200000000E+02     0.30957000000000E+02     0.16569100000000E+02
H    0.21539700000000E+02     0.32160000000000E+02     0.15510300000000E+02
H    0.16488700000000E+02     0.32408300000000E+02     0.32760200000000E+01
H    0.15906100000000E+02     0.32638900000000E+02     0.62586400000000E+01
H   -0.89813500000000E+00     0.20445100000000E+02     0.22678700000000E+02
H    0.27530500000000E+00     0.19045200000000E+02     0.25078600000000E+02
H    0.36439900000000E+02     0.28096900000000E+02     0.21114300000000E+02
H    0.34927700000000E+02     0.25789800000000E+02     0.20530000000000E+02
H    0.28760500000000E+02     0.31943500000000E+02     0.33612600000000E+01
H    0.31696200000000E+02     0.32105600000000E+02     0.38326400000000E+01
H    0.26485400000000E+02    -0.71983300000000E+01     0.97641900000000E+01
H    0.24678800000000E+02    -0.81123600000000E+01     0.79364700000000E+01
H    0.10868200000000E+02     0.25337900000000E+02     0.15582600000000E+02
H    0.13305200000000E+02     0.25626400000000E+02     0.14188600000000E+02
H    0.21200300000000E+02     0.29742600000000E+02     0.20007300000000E+02
H    0.22798500000000E+02     0.29592200000000E+02     0.22436800000000E+02
H    0.24967600000000E+02     0.53839800000000E+01     0.19741600000000E+02
H    0.22529500000000E+02     0.47130900000000E+01     0.21012500000000E+02
H    0.10398800000000E+02     0.15998200000000E+02     0.59448100000000E+01
H    0.98137800000000E+01     0.17468000000000E+02     0.34388900000000E+01
H    0.17671900000000E+02     0.13558400000000E+02     0.16768500000000E+02
H    0.19691900000000E+02     0.12769400000000E+02     0.18548900000000E+02
H    0.13929000000000E+02     0.14592800000000E+02     0.85524600000000E+01
H    0.11276200000000E+02     0.15201800000000E+02     0.93826700000000E+01
H    0.97440100000000E+01    -0.87808800000000E+01     0.82756200000000E+01
H    0.88513900000000E+01    -0.78522300000000E+01     0.54883300000000E+01
H    0.20462400000000E+02     0.16951200000000E+02     0.20552400000000E+02
H    0.21337700000000E+02     0.18632600000000E+02     0.22583700000000E+02
H    0.75193300000000E+01     0.23658200000000E+02     0.16601200000000E+01
H    0.64628000000000E+01     0.21177800000000E+02     0.21448600000000E+01
H    0.74709000000000E+01     0.14781100000000E+02     0.23570100000000E+02
H    0.80456000000000E+01     0.12026400000000E+02     0.23690400000000E+02
H    0.15598400000000E+02     0.31408100000000E+02     0.10396700000000E+02
H    0.18206500000000E+02     0.30184300000000E+02     0.99182300000000E+01
H    0.16609400000000E+02     0.20626300000000E+02     0.15161900000000E+02
H    0.15046600000000E+02     0.22437300000000E+02     0.16582000000000E+02
H   -0.53144100000000E+01     0.15618300000000E+02     0.22884200000000E+02
H   -0.25261000000000E+01     0.16358000000000E+02     0.23577100000000E+02
H    0.19246400000000E+02     0.47828200000000E+01    -0.48495400000000E+00
H    0.17905400000000E+02     0.68728200000000E+01    -0.17409800000000E+01
H    0.23112400000000E+01     0.17931900000000E+02     0.29787800000000E+02
H    0.45965400000000E+01     0.18395000000000E+02     0.27990900000000E+02
H    0.21497100000000E+02     0.28546500000000E+02     0.10084000000000E+02
H    0.20268300000000E+02     0.28773300000000E+02     0.12905100000000E+02
H    0.20263100000000E+02     0.23335000000000E+02     0.92506500000000E+01
H    0.18478200000000E+02     0.22482300000000E+02     0.72166600000000E+01
H   -0.66606600000000E+00     0.21765900000000E+02     0.31866600000000E+02
H   -0.16158900000000E+01     0.20620200000000E+02     0.29478400000000E+02
H    0.13372600000000E+02     0.75640900000000E+01     0.27670800000000E+02
H    0.14348400000000E+02     0.95990500000000E+01     0.25692300000000E+02
H   -0.67338900000000E+01     0.77685300000000E+01     0.29017200000000E+02
H   -0.40088100000000E+01     0.90840200000000E+01     0.28706000000000E+02
H    0.58533100000000E+01     0.47913100000000E+01     0.12669800000000E+02
H    0.70768100000000E+01     0.56249800000000E+01     0.10180100000000E+02
H    0.11306300000000E+02     0.71327800000000E+01     0.19514600000000E+02
H    0.10587800000000E+02     0.51777000000000E+01     0.21320400000000E+02
H    0.12908500000000E+02     0.27657700000000E+02     0.24944100000000E+01
H    0.15200800000000E+02     0.25841400000000E+02     0.32434400000000E+01
H    0.24142600000000E+02     0.16284900000000E+02     0.51306800000000E+01
H    0.23625600000000E+02     0.17460200000000E+02     0.76235700000000E+01
H    0.29377000000000E+02     0.13628700000000E+02     0.27111800000000E+02
H    0.32274400000000E+02     0.13984300000000E+02     0.27072000000000E+02
H    0.68846000000000E+01    -0.66440400000000E+00    -0.45973100000000E+00
H    0.84063700000000E+01     0.15465700000000E+01    -0.17871600000000E+01
H    0.30264500000000E+02     0.85729600000000E+01     0.21672500000000E+02
H    0.30209900000000E+02     0.58471100000000E+01     0.22910300000000E+02
H    0.70670100000000E+00     0.35429500000000E+00     0.57046400000000E+00
H   -0.17781800000000E+01    -0.18449500000000E+00    -0.79260500000000E+00
H    0.21467200000000E+02     0.69686900000000E+01     0.16617600000000E+02
H    0.23669800000000E+02     0.71071900000000E+01     0.14648300000000E+02
H    0.16112000000000E+02    -0.25471400000000E+01     0.99716100000000E+01
H    0.13486500000000E+02    -0.37754700000000E+01     0.92938200000000E+01
H    0.78450600000000E+01     0.10315600000000E+02     0.16896500000000E+01
H    0.80076800000000E+01     0.92086300000000E+01     0.42463800000000E+01
H    0.12985800000000E+02     0.27463200000000E+02     0.24090800000000E+02
H    0.13607600000000E+02     0.29026700000000E+02     0.21900700000000E+02
H   -0.56316400000000E+00     0.23595400000000E+02     0.21165400000000E+02
H   -0.32117300000000E+01     0.23523000000000E+02     0.22550700000000E+02
H    0.30118800000000E+02     0.96374100000000E+01     0.31936400000000E+02
H    0.29796300000000E+02     0.11511500000000E+02     0.34116500000000E+02
H    0.19675500000000E+01     0.16201500000000E+02     0.17017500000000E+02
H    0.12967500000000E+01     0.16363100000000E+02     0.19635600000000E+02
H    0.37407100000000E+01     0.64776100000000E+01     0.29658000000000E+02
H    0.35349100000000E+01     0.87066300000000E+01     0.28047600000000E+02
H    0.18840500000000E+02     0.91474200000000E+01     0.85366200000000E+01
H    0.21263200000000E+02     0.10600800000000E+02     0.77017600000000E+01
H    0.18503300000000E+02     0.17677200000000E+02     0.15129100000000E+01
H    0.21029900000000E+02     0.16662700000000E+02     0.10900700000000E+01
H    0.28986100000000E+01    -0.34086600000000E+01     0.88538300000000E+01
H    0.10491600000000E+01    -0.28140900000000E+01     0.68719700000000E+01
H    0.33137100000000E+02     0.16176400000000E+02     0.12731000000000E+02
H    0.35719900000000E+02     0.15396500000000E+02     0.13652600000000E+02
H    0.25860900000000E+02     0.28360500000000E+02     0.92524400000000E+01
H    0.24587200000000E+02     0.25879500000000E+02     0.86336700000000E+01
H    0.26199800000000E+02     0.40567800000000E+01     0.87942900000000E+01
H    0.23367700000000E+02     0.50383100000000E+01     0.88991800000000E+01
H    0.10099600000000E+02     0.18348700000000E+02     0.12550900000000E+02
H    0.81599000000000E+01     0.17611300000000E+02     0.10441800000000E+02
H    0.72605900000000E+01     0.10122300000000E+02     0.96014900000000E+01
H    0.99310000000000E+01     0.10874600000000E+02     0.85459300000000E+01
H    0.99612100000000E+01     0.28292000000000E+02     0.60450500000000E+01
H    0.93207500000000E+01     0.25601100000000E+02     0.70257300000000E+01
H    0.18563300000000E+02    -0.29745400000000E+01     0.18905700000000E+02
H    0.18384500000000E+02    -0.56809000000000E+01     0.17861300000000E+02
H    0.75337300000000E+01     0.30997300000000E+02     0.10933500000000E+02
H    0.92791200000000E+01     0.28662600000000E+02     0.10309200000000E+02
H    0.29246800000000E+02     0.29401600000000E+02     0.19786600000000E+02
H    0.29164700000000E+02     0.29088900000000E+02     0.16897400000000E+02
H    0.16707800000000E+02     0.21488200000000E+02     0.36906800000000E+01
H    0.19391700000000E+02     0.22973500000000E+02     0.36976700000000E+01
H    0.54335600000000E+01     0.23012300000000E+02     0.15991200000000E+02
H    0.51178300000000E+01     0.20056000000000E+02     0.15656100000000E+02
H    0.83660300000000E+01     0.22101900000000E+02     0.25245200000000E+02
H    0.63676500000000E+01     0.20135900000000E+02     0.24522700000000E+02
H    0.19988500000000E+02    -0.77283500000000E-01     0.30824900000000E+02
H    0.18264300000000E+02     0.12538300000000E+01     0.28777600000000E+02
H    0.22122500000000E+02     0.20830400000000E+02     0.92748200000000E+00
H    0.24408900000000E+02     0.22063000000000E+02     0.19418500000000E+01
H    0.15205900000000E+02     0.40963900000000E+01     0.18541700000000E+02
H    0.15237000000000E+02     0.33543100000000E+01     0.15604900000000E+02
H    0.18223800000000E+02     0.16043700000000E+02     0.92414700000000E+01
H    0.17598000000000E+02     0.13523800000000E+02     0.80995500000000E+01
H    0.32309000000000E+02     0.50693600000000E+01    -0.28713200000000E+01
H    0.31637100000000E+02     0.22402400000000E+01    -0.33583500000000E+01
H    0.15159800000000E+02     0.30025100000000E+02     0.18502200000000E+02
H    0.13922300000000E+02     0.27385800000000E+02     0.18300400000000E+02
H    0.38978000000000E+01     0.30978200000000E+02     0.19941600000000E+02
H    0.42394300000000E+01     0.31866700000000E+02     0.22641900000000E+02
H    0.20595400000000E+02     0.12054500000000E+02     0.30042700000000E+01
H    0.23278300000000E+02     0.11008900000000E+02     0.23565400000000E+01
H    0.21257800000000E+02     0.23850700000000E+02     0.24525200000000E+02
H    0.21651500000000E+02     0.23827300000000E+02     0.21736500000000E+02
H    0.28004000000000E+02     0.14011000000000E+02     0.17189200000000E+02
H    0.26521400000000E+02     0.13996000000000E+02     0.19506800000000E+02
H    0.14545600000000E+02     0.64411300000000E+01     0.34469900000000E+02
H    0.12395500000000E+02     0.81964500000000E+01     0.34298100000000E+02
H    0.12231800000000E+02     0.16218200000000E+01     0.32804000000000E+01
H    0.96382400000000E+01     0.75657200000000E+00     0.19497500000000E+01
H    0.21711100000000E+02     0.16538000000000E+02     0.15191400000000E+02
H    0.24300200000000E+02     0.15859600000000E+02     0.16321200000000E+02
H    0.29815500000000E+02     0.56796500000000E+01     0.19049100000000E+02
H    0.30047400000000E+02     0.34108800000000E+01     0.17225200000000E+02
H    0.12440400000000E+02     0.43827100000000E+01     0.11885300000000E+02
H    0.11348400000000E+02     0.18009100000000E+01     0.12631200000000E+02
H   -0.35697300000000E+00     0.33218400000000E+01     0.99292300000000E+01
H   -0.93833400000000E-01     0.47745700000000E+00     0.95831600000000E+01
H   -0.40173100000000E+01     0.11821100000000E+02     0.24353600000000E+02
H   -0.41671600000000E+01     0.89617800000000E+01     0.23858200000000E+02
H    0.10563100000000E+02     0.16533800000000E+02     0.20075500000000E+02
H    0.93375000000000E+01     0.14100100000000E+02     0.18477100000000E+02
H    0.63702700000000E+01     0.13951400000000E+02     0.29904100000000E+02
H    0.79220000000000E+01     0.12702700000000E+02     0.27635600000000E+02
H    0.21274300000000E+02     0.11073000000000E+02    -0.50921700000000E+01
H    0.19902400000000E+02     0.13609900000000E+02    -0.59925500000000E+01
H    0.51340700000000E+01    -0.54555700000000E+01     0.11661500000000E+02
H    0.63474900000000E+01    -0.61513300000000E+01     0.91136600000000E+01
H    0.28674200000000E+02     0.10416900000000E+02     0.12144400000000E+02
H    0.28155000000000E+02     0.11211900000000E+02     0.92898300000000E+01
H    0.67791700000000E+00     0.17677900000000E+02     0.10683100000000E+02
H    0.33183000000000E+00     0.14636600000000E+02     0.10604600000000E+02
H    0.11935400000000E+02     0.22229900000000E+02     0.22531600000000E+02
H    0.96288000000000E+01     0.24329200000000E+02     0.22360900000000E+02
H    0.71613600000000E+01     0.35091800000000E+02     0.17177100000000E+02
H    0.42338500000000E+01     0.35243100000000E+02     0.16620100000000E+02
H    0.18331000000000E+02     0.49091100000000E+00    -0.54020300000000E+01
H    0.15415900000000E+02     0.54435100000000E+00    -0.45161700000000E+01
H    0.79465300000000E+01     0.25282300000000E+02     0.27689700000000E+02
H    0.49681800000000E+01     0.25386300000000E+02     0.28359800000000E+02
H    0.75737200000000E+01     0.74399100000000E+01     0.21437700000000E+02
H    0.53784100000000E+01     0.95077700000000E+01     0.21324000000000E+02
H    0.23897400000000E+02     0.15636900000000E+01    -0.33781100000000E+00
H    0.23092200000000E+02    -0.85201400000000E+00    -0.15283300000000E+01
H    0.12350500000000E+02     0.19428900000000E+02     0.14760900000000E+02
H    0.10255700000000E+02     0.18192000000000E+02     0.16687700000000E+02
H    0.19480700000000E+02     0.57924200000000E+01     0.12474300000000E+02
H    0.18687000000000E+02     0.41763500000000E+01     0.10297400000000E+02
H    0.46434900000000E+01     0.94508200000000E+01     0.13506000000000E+02
H    0.31576700000000E+01     0.10478100000000E+02     0.11288300000000E+02
H    0.25358100000000E+02     0.45261000000000E+01     0.45751500000000E+01
H    0.25746000000000E+02     0.51086500000000E+01     0.17185000000000E+01
H   -0.57751800000000E+00     0.77627600000000E+01     0.15540600000000E+02
H   -0.26718300000000E+01     0.10190500000000E+02     0.16047000000000E+02
H   -0.73991300000000E+01     0.17692000000000E+02     0.11792700000000E+02
H   -0.88232200000000E+01     0.19359400000000E+02     0.97024200000000E+01
H    0.14097300000000E+02     0.10674400000000E+02     0.50221800000000E+02
H    0.14710700000000E+02     0.92497500000000E+01     0.47594200000000E+02
H    0.25756000000000E+02     0.22980100000000E+02     0.15002200000000E+02
H    0.25842500000000E+02     0.20109000000000E+02     0.14453600000000E+02
H    0.16045300000000E+02     0.33491000000000E+02     0.22909400000000E+02
H    0.14737100000000E+02     0.35875300000000E+02     0.23936700000000E+02
H    0.77869400000000E+01     0.32171900000000E+02    -0.55197300000000E+01
H    0.10615700000000E+02     0.31404600000000E+02    -0.51894900000000E+01
H    0.15018800000000E+01     0.12193200000000E+02     0.23597800000000E+02
H    0.22967900000000E+01     0.12647200000000E+02     0.20855700000000E+02
H    0.16475300000000E+02     0.99260100000000E+01     0.33865000000000E+01
H    0.18187800000000E+02     0.96517100000000E+01     0.96786600000000E+00
H    0.11808600000000E+02     0.13353800000000E+02     0.23832400000000E+02
H    0.14639400000000E+02     0.14051800000000E+02     0.24433700000000E+02
H    0.14572800000000E+01     0.75161900000000E+01     0.65631200000000E+01
H    0.32729900000000E+01     0.59473600000000E+01     0.86520100000000E+01
H    0.26971000000000E+02     0.39763100000000E+00     0.24263400000000E+02
H    0.25939600000000E+02     0.22078000000000E+01     0.21946700000000E+02
H    0.72225500000000E+01     0.26446800000000E+02     0.16887100000000E+02
H    0.79746000000000E+01     0.27925600000000E+02     0.14218200000000E+02
H    0.39261600000000E+02     0.70172100000000E+01     0.29851400000000E+02
H    0.39496200000000E+02     0.53042400000000E+01     0.27626300000000E+02
H    0.15081200000000E+02     0.24264000000000E+02     0.26427200000000E+02
H    0.14611800000000E+02     0.26005100000000E+02     0.28564700000000E+02
H    0.19168300000000E+02     0.90082400000000E+01    -0.81957500000000E+01
H    0.18184500000000E+02     0.65005800000000E+01    -0.90465900000000E+01
H    0.10876000000000E+02     0.16766000000000E+02     0.28671400000000E+02
H    0.95175500000000E+01     0.19363200000000E+02     0.28623800000000E+02
H    0.31229400000000E+02     0.15294000000000E+02     0.33665500000000E+02
H    0.28514300000000E+02     0.16032600000000E+02     0.34712500000000E+02
H    0.15017600000000E+02     0.17208100000000E+02     0.27410900000000E+02
H    0.17740300000000E+02     0.17978000000000E+02     0.27440700000000E+02
H    0.26561500000000E+02     0.77322900000000E+00     0.13894500000000E+02
H    0.25525000000000E+02    -0.97832900000000E+00     0.15937200000000E+02
H    0.25389000000000E+02    -0.47112300000000E+01     0.18416500000000E+02
H    0.22834700000000E+02    -0.41500600000000E+01     0.17348600000000E+02
H    0.15124400000000E+02     0.17018500000000E+02     0.42489100000000E+01
H    0.13491400000000E+02     0.18308800000000E+02     0.17581800000000E+01
H   -0.31864900000000E+01     0.10217800000000E+02     0.56881100000000E+01
H   -0.45124200000000E+01     0.86611500000000E+01     0.75067600000000E+01
H    0.29138900000000E+02     0.21491500000000E+02     0.12095400000000E+02
H    0.31148900000000E+02     0.22063700000000E+02     0.10196000000000E+02
H   -0.40619300000000E+01     0.14056100000000E+02    -0.10398000000000E+01
H   -0.21702700000000E+01     0.15081000000000E+02     0.97928500000000E+00
H    0.28813200000000E+02     0.27743900000000E+02     0.36523100000000E+01
H    0.26715600000000E+02     0.26193100000000E+02     0.44994100000000E+01
H    0.13598600000000E+02     0.71939300000000E+01     0.87705200000000E+01
H    0.11247900000000E+02     0.82343000000000E+01     0.10232500000000E+02
H    0.25666500000000E+02     0.18523700000000E+02     0.26898700000000E+02
H    0.24410300000000E+02     0.20900900000000E+02     0.25603600000000E+02
H    0.34886000000000E+02     0.28818900000000E+01     0.31573100000000E+02
H    0.35805800000000E+02     0.53104500000000E+01     0.32984100000000E+02
H    0.14338500000000E+02     0.18784500000000E+02     0.22623800000000E+02
H    0.15109100000000E+02     0.19489400000000E+02     0.19992100000000E+02
H    0.15280500000000E+02     0.22569500000000E+02     0.11435600000000E+02
H    0.15632700000000E+02     0.19788700000000E+02     0.10438400000000E+02