&CONTROL
  calculation       = 'cp-wf',
  title             = "(H2O)256 Molecule: CP NVT MD with PBE0 at 300 K",
  restart_mode      = "restart",
  pseudo_dir        = '/home/junteng/qe-5.4-mira/pseudopotentials/',
  outdir            = './',
  prefix            = 'w256',
  nstep             = 50,
  iprint            = 1,
  isave             = 1000,
  dt                = 2.D0,
  max_seconds       = 3300,
  ndr               = 51,
  ndw               = 52,
  tprnfor           = .TRUE.,
/
&SYSTEM
  ibrav             = 1,
  celldm(1)         = 37.3309d0,
  nat               = 768,
  ntyp              = 2,
  ecutwfc           = 85.D0,
  input_dft         = 'PBE0',
/
&ELECTRONS
  electron_dynamics = "verlet",
  emass             = 100.D0,
  emass_cutoff      = 10.D0,
/
&IONS
  ion_dynamics      = "verlet",
  ion_temperature   = 'nose',
  fnosep            = 60,
  tempw             = 300.0,
  nhpcl             = 4,
  nhptyp            = 2,
  ndega             = -3,
/
&WANNIER
  nit               = 60,
  exx_neigh         = 70,
  calwf             = 3,
  tolw              = 1.D-6,
  nsteps            = 20,
  adapt             = .FALSE.
  wfdt              = 4.D0,
  wf_q              = 500,
  wf_friction       = 0.3D0,
  exx_ps_rcut_self  = 6.0D0,
  exx_ps_rcut_pair  = 5.0D0,
  exx_me_rcut_self  = 10.0D0,
  exx_me_rcut_pair  = 7.0D0,
! exx_ps_sl_self    = 12.0D0,
! exx_ps_sl_pair    = 10.0D0,
! exx_solver        = 'MG',
/
ATOMIC_SPECIES
O 16.0D0 O_HSCV_PBE-1.0.UPF
H  2.0D0 H_HSCV_PBE-1.0.UPF 
ATOMIC_POSITIONS {bohr}
O    0.33860303711384E+02     0.20981612245894E+02     0.59168553542636E+01
O    0.25997058786141E+02     0.24477996765042E+02     0.37212522913581E+02
O    0.20437216162080E+02     0.33003305351216E+02     0.18074419768540E+02
O    0.12519099259116E+02     0.30962317979750E+02     0.30760929865768E+02
O    0.18943572847195E+02     0.21681137837683E+02     0.13672901785167E+02
O    0.34021833721771E+02     0.23177536373270E+02     0.18714819609083E+02
O    0.76141034318842E+01     0.14953693907349E+02     0.97541785931284E+01
O    0.26300548803082E+02     0.31273567212193E+02     0.36574848058121E+02
O    0.18500989538243E+02     0.21603337812792E+02     0.31040883343725E+02
O    0.13759776274948E+01     0.30941432726529E+02     0.12103200772886E+02
O    0.18072210678691E+02     0.32554814758372E+02     0.11251168612995E+02
O    0.32888888103048E+01     0.56586186090264E+01     0.29696898779660E+02
O    0.71213233276638E+01     0.35312896505485E+01     0.20032005966858E+02
O    0.23322914894399E+02     0.34361096254408E+02     0.55177508641765E+01
O    0.18887175860485E+02     0.28182544066358E+01     0.25050785984003E+02
O    0.30139631376976E+02     0.36627456143935E+02     0.71274535992389E+01
O    0.14343531574658E+01     0.35589641228467E+02     0.21260953452583E+02
O    0.37192875430977E+02     0.29206093439248E+02     0.32254593967641E+02
O    0.11947445765561E+02     0.74537223749862E+01     0.19134272670169E+02
O    0.89790809635595E+01     0.98855013312810E+01     0.21444952306690E+02
O    0.24967271427286E+02     0.36307308191132E-01     0.20681030517471E+02
O    0.28098583534274E+01     0.15776219883401E+02     0.31118352666542E+02
O    0.30844036241640E+02     0.21881811635186E+02     0.36679077792707E+02
O    0.82857347762253E+01     0.23702534418329E+02     0.24396096034443E+02
O    0.33962498210925E+02     0.37174858782026E+02     0.10659860077932E+02
O    0.16144145782021E+02     0.63753123627323E+01     0.12596619604539E+02
O    0.28105252377797E+02     0.14500267349846E+02     0.90745990606723E+01
O    0.29038892360736E+02     0.29248209765572E+02     0.24236382050870E+02
O    0.14834726198653E+02     0.13866931305587E+02     0.32457459847458E+02
O    0.24589307303447E+02     0.16370204270668E+02     0.36398723692810E+02
O    0.68321801115233E+01     0.32962610098945E+02     0.33151219884816E+02
O    0.15653659805326E+02     0.20089206087174E+02     0.98098555941816E+01
O    0.10027776922100E+02     0.35660968941353E+02     0.13291851738554E+02
O    0.29260613927908E+02     0.30266611524476E+02     0.97198347103893E+01
O    0.63719373118590E+01     0.10253599194980E+02     0.71153990362372E+01
O    0.49385781503391E+01     0.61529785242938E+01     0.98732710237489E+01
O    0.32402020951898E+02     0.36165899984608E+01     0.16788765381019E+02
O    0.10629605562544E+02     0.19770972426944E+02     0.65154846883652E+01
O    0.57831137666609E+01     0.40300545174316E+01     0.24675236930162E+02
O    0.13838746040315E+02     0.28804942375759E+02     0.18917171483393E+02
O    0.30088899789213E+01     0.23715592425908E+02     0.39509486917829E+01
O    0.19089718597134E+02     0.14797438122599E+02     0.19230945389949E+02
O    0.88533102407853E+01     0.16472483807884E+02     0.46832270169068E+01
O    0.12563785612980E+02     0.25036182180448E+02     0.99755467815130E+01
O    0.34625807201377E+02     0.26444887974838E+02     0.44727814455702E+01
O    0.11381657981923E+02     0.17684693989251E+02     0.31436622231569E+02
O    0.31966280341273E+02     0.23066171032806E+02     0.13660981392721E+02
O    0.32213777772897E+02     0.10947814656335E+02     0.35858224224282E+02
O    0.11950601608203E+02     0.37326564106248E+02     0.33295657322330E+02
O    0.19942774988589E+02     0.12482330857748E+02     0.22579923711827E+02
O    0.24119298399128E+02     0.24091224627698E+02     0.16042230961949E+02
O    0.19872681266868E+01     0.98248732477596E+01     0.37162046438845E+02
O    0.99722870039338E+01     0.57621529243949E-01     0.14334181209752E+02
O    0.21032769022037E+02     0.12159284065058E+02     0.27030542449311E+02
O    0.36171123187639E+02     0.16984735650178E+02     0.36144793633430E+02
O    0.24630714982471E+02     0.30080443264768E+02     0.20646694193637E+02
O    0.19103602415032E+02     0.19639596776460E+02     0.35946141842889E+02
O    0.21101585288893E+02     0.17820716476296E+02     0.13186913356668E+02
O    0.25868878662547E+02     0.25277129821295E+02     0.94225335465331E+00
O    0.17084441380401E+02     0.87845903499629E+01     0.34063451160396E+02
O    0.19928044573383E+02     0.10412519493577E+02     0.16108044453979E+01
O    0.23880920785822E+02     0.19728134225237E+02     0.60127759630427E+01
O    0.92531120398153E+01     0.27426237873455E+02     0.32721558523160E+02
O    0.34393006169888E+02     0.33958299239457E+02     0.34124591359699E+02
O    0.52899311507742E+01     0.64747932155458E+01     0.14568522368039E+02
O    0.14726214344650E+02     0.11898131472397E+01     0.21516988666876E+02
O    0.18576629606164E+02     0.21781287653547E+02     0.84990432826532E+00
O    0.18074877082264E+02     0.33077567808786E+02     0.37307806684653E+02
O    0.35524829291288E+02     0.11764079969709E+02     0.14722869529395E+02
O    0.19558913029490E+02     0.14391507941720E+02     0.34656069275669E+02
O    0.17490794859934E+02     0.73256915397570E+01     0.29892081033021E+02
O    0.29573431633041E+02     0.94599557931426E+01     0.97081316364483E+01
O    0.30688621385020E+02     0.87461570998722E+01     0.17819828305013E+02
O    0.89773084004468E+01     0.23410906212324E+02     0.52135219643171E+01
O    0.25021529244013E+02     0.50909297608985E+01     0.32611578351952E+02
O    0.18415394393054E+02     0.24319339138377E+01     0.29609139898048E+02
O    0.26392055011615E+02     0.36928540539509E+02     0.24362867090122E+02
O    0.27885913755279E+02     0.32091508712647E+02     0.54392100666415E+01
O    0.11125488597075E+02     0.36541522737768E+02     0.37324748079434E+02
O    0.13431990049116E+02     0.13784397516734E+02     0.25694895356944E+02
O    0.18389236803922E+02     0.30018112538001E+02     0.21230869012548E+02
O    0.21213876595161E+01     0.17343978257217E+02     0.49839013419102E+01
O    0.53194430037915E+01     0.12928291107300E+02     0.21622308773440E+02
O    0.24569731630437E+02     0.83094035960397E+01     0.19906303274224E+02
O    0.29875177432762E+02     0.58949137441347E+01     0.23869244168047E+01
O    0.17386663391107E+02     0.94579659115247E+01     0.19157748737918E+02
O    0.16050615676800E+02     0.35544918969807E+02     0.19940112364468E+02
O    0.11420714841637E+02     0.57405817005880E+01     0.62043752956560E+01
O    0.18434427714664E+02     0.34183061375977E+02     0.30654532615308E+01
O    0.31747586115366E+02     0.12600013552674E+01     0.25869842422875E+02
O    0.10854828792240E+02     0.94987632090075E+01     0.94306839353442E+01
O    0.58581793578375E+01     0.23213885255436E+02     0.28948060784433E+02
O    0.34403299508134E+02     0.31315403859049E+02     0.22576010089006E+02
O    0.28977544291558E+02     0.33096621917384E+02     0.28216355046328E+02
O    0.26527234680805E+02     0.14260748341955E+02     0.15737404908631E+02
O    0.54215789218217E+01     0.28314928830597E+02     0.27198274540866E+02
O    0.55548405189867E+01     0.25317097529006E+02     0.90198877096730E+01
O    0.33787772242952E+02     0.27198981298440E+02     0.26886067217274E+02
O    0.35270804745601E+02     0.17267009711825E+02     0.14802602744120E+00
O    0.34751778235121E+02     0.13980382903701E+01     0.12330723799285E+02
O    0.17053213656055E+02     0.11742826219892E+02     0.67566761038838E+01
O    0.84785869972647E+01     0.26400948062796E+01     0.29254750107718E+02
O    0.30863190505723E+02     0.19514918315390E+02     0.18141030724998E+01
O    0.11808626483839E+02     0.36238217913987E+02     0.24774432434329E+02
O    0.29516375131911E+02     0.19926536571929E+02     0.66643894384582E+01
O    0.13231815139312E+02     0.22568957631078E+02     0.20973548784485E+02
O    0.26201298496857E+02     0.19200492453318E+02     0.15975574652063E+02
O    0.22150152746056E+02     0.27844211278978E+02     0.30173130552134E+02
O    0.11132815065292E+02     0.66105473614800E+01     0.13202650995903E+02
O    0.23165888101386E+01     0.29973227762893E+02     0.19408298077247E+02
O    0.23419963669679E+02     0.35782274241275E+02     0.36800798832378E+02
O    0.30836295923400E+02     0.23349699872606E+02     0.23496971899320E+02
O    0.27259091597001E+02     0.27456908128591E+01     0.14196431513022E+02
O    0.27183527118125E+02     0.89649231353719E+01     0.34037871827461E+02
O    0.19536865594697E+02     0.68838301061873E+01     0.22926903885991E+02
O    0.31228782592570E+02     0.29063366203883E+02     0.34089722133095E+02
O    0.29228681335714E+02     0.12740665868744E+01     0.18158111959513E+02
O    0.21916682751516E+02     0.11256662046863E+02     0.16790367868780E+02
O    0.12786149687037E+02     0.21997272012179E+02     0.14431432185729E+02
O    0.25112009331256E+02     0.69374529749341E+01     0.91781484938499E+01
O    0.16697034295076E+02     0.16528013410299E+02     0.22164225536568E+02
O    0.35318834024994E+02     0.11833674803731E+02     0.10568083638562E+02
O    0.34392191697925E+02     0.83292513896134E+01     0.48529093058308E+01
O    0.20578877591906E+02     0.75462150205602E+01     0.14990842143669E+02
O    0.16403705335551E+02     0.65849340134749E+01     0.81326782978184E+01
O    0.10962068860555E+02     0.20786987461742E-03     0.46322762209119E+01
O    0.37689264912111E+01     0.35150211872431E+02     0.80845828780103E+01
O    0.36744042797703E+01     0.87421319832092E+01     0.32945969170618E+02
O    0.27738021898393E+02     0.26072542006793E+02     0.30123154854824E+02
O    0.28345857978214E+02     0.22109538752008E+02     0.28602325939791E+02
O    0.27197940059341E+01     0.77082987207040E+01     0.21291725752931E+02
O    0.71540401562025E+01     0.81916169661769E+01     0.27291670475532E+01
O    0.22773535602772E+02     0.27496342933532E+02     0.12710553082817E+02
O    0.41149353461425E+01     0.20420853023495E+01     0.32507787033829E+02
O    0.37303688971409E+02     0.37983986599796E+01     0.20492834581623E+02
O    0.81497122891802E+01     0.14320408885696E+02     0.26971821099458E+02
O    0.34671107716234E+01     0.27377993165282E+02     0.13688677218925E+02
O    0.27736283350351E+02     0.75679978936940E+01     0.55359734932760E+01
O    0.19168178136445E+02     0.16567778917313E+02     0.28695247553197E+02
O    0.13679064182087E+02     0.26074650941157E+02     0.26485076780506E+02
O    0.14350500884636E+02     0.96232791536295E+01     0.22476903401967E+02
O    0.97612537277699E+01     0.23827619170517E+02     0.18950889866782E+02
O    0.32794738167656E+02     0.63079870897960E+01     0.10635488279996E+02
O    0.12394579535041E+02     0.18472583175013E+02     0.18341625154004E+01
O    0.28410409133187E+02     0.17057752778226E+02     0.34099233124722E+02
O    0.23556328197154E+02     0.14461161357252E+02     0.24360191237918E+02
O    0.33919750716073E+02     0.14082038831294E+02     0.50808688589670E+01
O    0.70843508358739E+01     0.23892510476195E+02     0.33056780821325E+02
O    0.18757939379983E+02     0.25630436798552E+02     0.97881256333795E+01
O    0.21989304926803E+02     0.23088910107363E+02     0.22559321917527E+02
O    0.13196205140064E+02     0.23036366272239E+01     0.10087694468595E+02
O    0.29108976633827E+02     0.33287461580092E+02     0.18493245440550E+02
O    0.23694100570598E+02     0.10451102032032E+02     0.58917938062893E+01
O    0.15358167109379E+02     0.92683318940896E+01     0.22954560027946E+01
O    0.28684557372464E+02     0.15285696112183E+02     0.26546426739410E+02
O    0.26298934976965E+02     0.20822155265075E+02     0.19250999163671E+01
O    0.12015390868669E+02     0.31844098208425E+02     0.35485112917153E+02
O    0.78984920970744E+01     0.31614264046965E+02     0.17738052296339E+02
O    0.34533416601014E+02     0.30727910681048E+01     0.31065241913577E+02
O    0.18546785161347E+02     0.33974700172565E+02     0.26479934835698E+02
O    0.49482686659485E+01     0.30634206721023E+02     0.22597902566256E+02
O    0.17844287030351E+01     0.35195485931122E+02     0.34466858556887E+02
O    0.91995118477822E+01     0.79304605940644E+01     0.35819203269364E+02
O    0.19774795342911E+02     0.28444632073454E+02     0.59185957920320E+01
O    0.35822873117514E+02     0.11020232741199E+02     0.19297444852565E+02
O    0.42700799719263E+01     0.16850446041996E+02     0.22837362992637E+02
O    0.24128643094855E+02     0.31784003027673E+02     0.10155785080615E+02
O    0.11050273717534E+02     0.18856218366976E+02     0.25955144660513E+02
O    0.18112543103545E+02     0.26056668307276E+02     0.28580803848864E+02
O    0.36261213991299E+02     0.11878249663753E+02     0.35637617595529E+02
O    0.19421218134817E+02     0.36638172780834E+02     0.31450118655610E+02
O    0.24450070392250E+02     0.30346543160445E+02     0.32636655017735E+02
O    0.23312793521231E+02     0.10935659937848E+02     0.12881346530707E+02
O    0.17280483459153E+02     0.13196653005157E+02     0.14175667202274E+02
O    0.10006451362690E+02     0.48828728033939E+01     0.22903320103853E+02
O    0.36446985408518E+02     0.48724037206177E+01     0.59074445181218E+01
O    0.31531741596468E+02     0.17950330902024E+02     0.11486288338448E+02
O    0.18627264817894E+02     0.31355596444169E+02     0.31950134521193E+02
O    0.35909789181270E+02     0.44001517113789E+00     0.22515166576706E+02
O    0.28355370859567E+02     0.36024745001386E+02     0.34245787055506E+02
O    0.24197191020600E+02     0.27079117859557E+02     0.25423464543847E+02
O    0.93191088352802E+00     0.29759709496864E+02     0.57125098188840E+00
O    0.29168410410432E+02     0.41564526292820E+01     0.29765839768439E+02
O    0.10061230743830E+02     0.27271112144932E+02     0.15393608923001E+02
O    0.22264653142174E+02     0.19362725441826E+02     0.19112998133365E+02
O    0.30694725200429E+02     0.21779964845254E+02     0.32024750357550E+02
O    0.20695156220314E+02     0.31204650789853E+01     0.76429878958253E+01
O    0.35802396045138E+02     0.74087015395963E+01     0.15711098031135E+02
O    0.18636857067745E+02     0.25632923678143E+02     0.23733514588552E+02
O    0.32343299602045E+02     0.11159316584580E+02     0.23100087837439E+02
O    0.28868892597822E+02     0.25470276839611E+02     0.15451366512527E+02
O    0.36257005571201E+02     0.52458192736543E+01     0.25815070600639E+02
O    0.29694173794576E+01     0.16849508737834E+02     0.18538889885564E+02
O    0.14308371330229E+02     0.51378800066700E+01     0.34654642532438E+02
O    0.15035934788652E+02     0.17249646908116E+01     0.13931302936578E+02
O    0.87953258841238E+01     0.11076077927878E+02     0.31038147020284E+02
O    0.20422818338674E+02     0.12258916095962E+02     0.31193463611146E+02
O    0.32697712069089E+02     0.18292702034150E+02     0.26032315406602E+02
O    0.14554574299452E+02     0.21979249694050E+02     0.38303728261480E+01
O    0.27836790324455E+02     0.86563535345852E+01     0.27330534583181E+02
O    0.90538385293764E+01     0.20302006257272E+02     0.11710689537276E+02
O    0.31943756695495E+02     0.16320343846651E+02     0.18915298764795E+02
O    0.22843553735448E+02     0.15324036765693E+02     0.34555872216651E+01
O    0.14218331549176E+02     0.31612107869447E+02     0.26687944550050E+02
O    0.16250223668765E+02     0.20736469413032E+02     0.25899957098528E+02
O    0.36292562658117E+02     0.80513369261544E+01     0.33480064357282E+02
O    0.31567827806701E+02     0.34984499898112E+00     0.75433785416348E+01
O    0.12952122443562E+02     0.30660555172494E+02     0.14528902369937E+02
O    0.21499657988511E+02     0.37931622288654E+01     0.11771429114640E+02
O    0.22849984473478E+02     0.24302830490880E+02     0.33749792527133E+02
O    0.53527721035972E+01     0.16741321916727E+02     0.13533657315066E+02
O    0.30227371361326E+02     0.34837430072094E+02     0.22503026976028E+02
O    0.31183026653714E+02     0.13579486953240E+02     0.14031312912709E+02
O    0.45573788153611E+01     0.23751151402550E+02     0.17999732122590E+02
O    0.16835048553466E+02     0.21956967933217E+02     0.17671566061805E+02
O    0.26838149431722E+02     0.17835359964099E+02     0.29311676217745E+02
O    0.22622391527212E+02     0.11257336679093E+02     0.35397274667044E+02
O    0.36759825790365E+02     0.16588295673938E+02     0.24082495982690E+02
O    0.12348271796155E+02     0.16271902606961E+02     0.20916677476516E+02
O    0.89545863334250E+01     0.32760789237678E+02     0.33002668513509E+01
O    0.15804429715112E+02     0.14548156789505E+02     0.36301639012733E-02
O    0.85746228793379E+01     0.35835985927150E+02     0.27716692559531E+02
O    0.11098985188061E+02     0.23874471150530E+02     0.31571191519218E+02
O    0.35808533875618E+02     0.24718309457909E+02     0.22892786770388E+02
O    0.33811374922352E+02     0.94168379119685E+01     0.26767282812013E+02
O    0.21478237942795E+02     0.33538670433841E+01     0.17802871792423E+02
O    0.27649308705085E+02     0.15211652862844E+02     0.20145298827976E+02
O    0.18952233462062E+01     0.56539056320509E+01     0.23155740272053E+01
O    0.32120317587542E+02     0.95750590118967E+01     0.31072116737249E+02
O    0.33320320138091E+02     0.36866028399033E+02     0.18015486769360E+02
O    0.20407572028234E+02     0.12967374423180E+02     0.90633400723726E+01
O    0.29356680045599E+02     0.37330882130462E+02     0.24525886204702E+01
O    0.27628771161473E+02     0.12748262567799E+01     0.58467786400778E+01
O    0.26732612006653E+02     0.24779954214090E+02     0.87457697060150E+01
O    0.37325258305490E+02     0.17275025930081E+02     0.91949991817768E+01
O    0.31886378940922E+02     0.26962574669490E+02     0.18847892233635E+02
O    0.35552778340793E+01     0.28986002705729E+02     0.43043199197280E+01
O    0.91463066085108E+01     0.10333519492592E+02     0.15816302864405E+02
O    0.25820970325626E+02     0.24104930811340E+01     0.25857209603676E+02
O    0.26998422774231E+02     0.29178881382935E+02     0.15619251671899E+02
O    0.76123214201408E+01     0.30647357325182E+02     0.10936757868731E+02
O    0.98528185178127E+01     0.15242890035821E+01     0.34761034113720E+02
O    0.19931264666714E+02     0.18702568514564E+02     0.68241053117575E+01
O    0.27335933530742E+02     0.20987918262000E+02     0.21394513626477E+02
O    0.22388161862767E+02     0.20525037404654E+02     0.26778316922903E+02
O    0.17767199432212E+02     0.25383542189564E+02     0.36830208640184E+02
O    0.18693773729141E+02     0.29018010886968E+02     0.15098431811319E+02
O    0.24615597173408E+02     0.40257308240396E+01     0.22217158655276E+02
O    0.99309473550508E+01     0.30890472481904E+02     0.23661213666708E+02
O    0.10330471364339E+02     0.18376968701867E+02     0.17950412160248E+02
O    0.31042754172596E+02     0.32458359357098E+02     0.14062661579527E+02
O    0.34925491309886E+02     0.27115525323233E+02     0.11288626764401E+02
O    0.87212127149181E+01     0.27838572336198E+02     0.29966691200199E+01
O    0.31041822537613E+02     0.55126240371780E+01     0.24278634437475E+02
O    0.21275878509581E+01     0.25131148477530E+02     0.21885369989494E+02
O    0.22724278001392E+02     0.13368735246270E+01     0.34740196103652E+02
H    0.35696323827573E+02     0.21208128048265E+02     0.63031153758254E+01
H    0.33513529517369E+02     0.19160052314074E+02     0.55519605763602E+01
H    0.25202529102747E+02     0.22767369426401E+02     0.37330664811956E+02
H    0.24646282546354E+02     0.25799463352508E+02     0.37187708919730E+02
H    0.22320621161051E+02     0.33152087269111E+02     0.18120585777967E+02
H    0.19669184218522E+02     0.34729987803083E+02     0.18060981926009E+02
H    0.13672094872108E+02     0.32427507688252E+02     0.31069643085741E+02
H    0.13532257028001E+02     0.29473370634305E+02     0.30188187889961E+02
H    0.18112737745337E+02     0.23305289418757E+02     0.13179626572700E+02
H    0.17724518077775E+02     0.20255260101923E+02     0.13444282717611E+02
H    0.35215097508930E+02     0.21848913392939E+02     0.19333170125108E+02
H    0.34841451409305E+02     0.24163257208432E+02     0.17326269633626E+02
H    0.87803309072593E+01     0.16087968003543E+02     0.10715854552975E+02
H    0.82810671526771E+01     0.13185881566200E+02     0.97927724699403E+01
H    0.24447060058521E+02     0.31602358772328E+02     0.36742060474990E+02
H    0.26693043031156E+02     0.29539837971577E+02     0.37216421418593E+02
H    0.19710828113312E+02     0.20436993174396E+02     0.31905414152258E+02
H    0.17204841501505E+02     0.22198403123407E+02     0.32280795020473E+02
H    0.26751341082356E+00     0.32323750385200E+02     0.11445946464964E+02
H    0.12887044054998E+01     0.30907869300683E+02     0.13990723485100E+02
H    0.16889149522924E+02     0.31081272460363E+02     0.11228340721310E+02
H    0.19503487362012E+02     0.32195137514322E+02     0.12431661630947E+02
H    0.48399476742854E+01     0.63710642583856E+01     0.28885652578895E+02
H    0.19002972608730E+01     0.55560650615208E+01     0.28419096204220E+02
H    0.80161710125476E+01     0.21373426172560E+01     0.19122255901690E+02
H    0.52555097892637E+01     0.32434597940703E+01     0.19946093347678E+02
H    0.21510045813064E+02     0.34816270808584E+02     0.57966876694734E+01
H    0.23424005793877E+02     0.32723036288996E+02     0.45807207125545E+01
H    0.20263663714036E+02     0.36235063961072E+01     0.26064854600884E+02
H    0.17273259036147E+02     0.37650676704478E+01     0.25315931567982E+02
H    0.28465613702707E+02     0.35790670294484E+02     0.73900045892375E+01
H    0.31368159343501E+02     0.35372891530752E+02     0.64286857876295E+01
H    0.32799296187088E+01     0.35691686439643E+02     0.21654551280719E+02
H    0.77349892126049E+00     0.33895369469506E+02     0.21774957071002E+02
H    0.36252655421643E+02     0.28021630106691E+02     0.33387957215839E+02
H    0.36064285630991E+02     0.29754726289052E+02     0.30841521016157E+02
H    0.12619868905152E+02     0.88447422224987E+01     0.18045977500514E+02
H    0.12871157127398E+02     0.58505316361777E+01     0.18749537657596E+02
H    0.80563617079418E+01     0.86478535464395E+01     0.22535042716171E+02
H    0.99569216407473E+01     0.11079173299284E+02     0.22536034822391E+02
H    0.26489498739657E+02     0.12903050035343E-01     0.21800742384085E+02
H    0.23404069183175E+02     0.39684248790598E-04     0.21742431104803E+02
H    0.38535125226452E+01     0.17346412224477E+02     0.30988887529178E+02
H    0.39321119016903E+01     0.14303452373106E+02     0.31496488755459E+02
H    0.31061422777063E+02     0.23752651845100E+02     0.36834587135634E+02
H    0.29126373452606E+02     0.21393755846298E+02     0.37297881843003E+02
H    0.65720630887838E+01     0.24087908158335E+02     0.23698743627707E+02
H    0.95745166604965E+01     0.24781397964855E+02     0.23532047106073E+02
H    0.34873368883689E+02     0.35538246346831E+02     0.10408278948135E+02
H    0.32105116630530E+02     0.36849198498094E+02     0.10784600899964E+02
H    0.17738173238811E+02     0.53601514841461E+01     0.12594236659885E+02
H    0.16570048478399E+02     0.82165292257868E+01     0.12600249768440E+02
H    0.29952873522716E+02     0.14709116102600E+02     0.94124745343277E+01
H    0.27279340012515E+02     0.16199140591940E+02     0.90181491616307E+01
H    0.28166254627093E+02     0.27904754324824E+02     0.23233829425042E+02
H    0.30906790267061E+02     0.28968163691035E+02     0.24173017643908E+02
H    0.13540439542156E+02     0.12822732895243E+02     0.31559711432961E+02
H    0.16274788218766E+02     0.14227337983925E+02     0.31287927241077E+02
H    0.25942519400219E+02     0.15419375338823E+02     0.37313179176049E+02
H    0.24767580287372E+02     0.18217704473114E+02     0.36754319128414E+02
H    0.66656045323617E+01     0.34357532230922E+02     0.34415308717708E+02
H    0.84609709702539E+01     0.33154725326792E+02     0.32212275440621E+02
H    0.14903081372331E+02     0.21604681408072E+02     0.10653329184417E+02
H    0.16083088730668E+02     0.20513260631394E+02     0.80189753661288E+01
H    0.95757449824829E+01     0.35431767838148E+02     0.15112461138129E+02
H    0.97976196174711E+01     0.34024575714390E+02     0.12374939611342E+02
H    0.30903179000421E+02     0.30731656118244E+02     0.89091592069166E+01
H    0.29447660910267E+02     0.28615380167917E+02     0.10619799773641E+02
H    0.54214938841457E+01     0.11886126042275E+02     0.70607028030470E+01
H    0.81253896241238E+01     0.10523552242241E+02     0.64642334259152E+01
H    0.58506204533059E+01     0.59938711428093E+01     0.82257454201369E+01
H    0.40477669204752E+01     0.78182864508163E+01     0.99417490296263E+01
H    0.34256076614299E+02     0.36178277690778E+01     0.16422759444149E+02
H    0.31556304256743E+02     0.49583484651413E+01     0.15761179553109E+02
H    0.11996123221018E+02     0.19778552118463E+02     0.78208791550706E+01
H    0.89446123588956E+01     0.19854821465186E+02     0.73671029982331E+01
H    0.39520409534877E+01     0.40262353809171E+01     0.25142830764483E+02
H    0.65501233683810E+01     0.56915886608668E+01     0.25146923911287E+02
H    0.13844745920787E+02     0.27737207426430E+02     0.17357880972377E+02
H    0.14289912485363E+02     0.30583408992845E+02     0.18464410109488E+02
H    0.39027417781330E+01     0.22783554930729E+02     0.25711594866781E+01
H    0.39540742988067E+01     0.23497937549374E+02     0.55729044110909E+01
H    0.17381083029837E+02     0.14101170418663E+02     0.18821970860270E+02
H    0.19139745317050E+02     0.16636931555420E+02     0.18800548924828E+02
H    0.77499652922080E+01     0.15301870278154E+02     0.36913721307175E+01
H    0.10630943488647E+02     0.15831328076888E+02     0.46625005006813E+01
H    0.12649715239695E+02     0.24759613201995E+02     0.81080324895933E+01
H    0.10892763154632E+02     0.24437928901846E+02     0.10624595898566E+02
H    0.32945508077442E+02     0.27122343455121E+02     0.39350731025406E+01
H    0.35020242178189E+02     0.27051877457351E+02     0.62184839909641E+01
H    0.13258881686713E+02     0.17547953406275E+02     0.31266875691956E+02
H    0.10622881916964E+02     0.15953937287842E+02     0.31451422566642E+02
H    0.31159006344839E+02     0.21712352333946E+02     0.14703558418043E+02
H    0.31138453683418E+02     0.23131633035776E+02     0.11963364818504E+02
H    0.32591928979622E+02     0.98236373668687E+01     0.37329519637920E+02
H    0.31353370346785E+02     0.12515856489072E+02     0.36468488602184E+02
H    0.10129818353823E+02     0.36852843779804E+02     0.33117291741826E+02
H    0.12968266373915E+02     0.36420756009794E+02     0.31985941051959E+02
H    0.21352051480271E+02     0.11226895080818E+02     0.22483481538636E+02
H    0.18288962266133E+02     0.11569561010220E+02     0.22636838483498E+02
H    0.23062068437372E+02     0.22812736081673E+02     0.15137125843616E+02
H    0.23080446024014E+02     0.24938010907844E+02     0.17374606938379E+02
H    0.25224801414949E+01     0.80229022170329E+01     0.36967293153316E+02
H    0.35172584340118E+01     0.10922318471350E+02     0.37324014865695E+02
H    0.92973845436566E+01     0.26985289177607E-02     0.12569819508522E+02
H    0.85333342530605E+01     0.55070398964553E-01     0.15559288771976E+02
H    0.22196730715779E+02     0.10746641971132E+02     0.26560308667582E+02
H    0.19246214377103E+02     0.11640469203904E+02     0.26698064033491E+02
H    0.36784985604098E+02     0.15642026651252E+02     0.37324534540381E+02
H    0.35381618286033E+02     0.18384247926931E+02     0.37139545469781E+02
H    0.23453634809915E+02     0.29072264924243E+02     0.19565241722309E+02
H    0.24070847710807E+02     0.29981419725679E+02     0.22448977029175E+02
H    0.19206061476231E+02     0.20948787702966E+02     0.37305185634507E+02
H    0.20823504529534E+02     0.18922277523404E+02     0.35631691414376E+02
H    0.22908630234286E+02     0.18099649502140E+02     0.13664687145668E+02
H    0.20800087043295E+02     0.15975234501359E+02     0.12913454867431E+02
H    0.24416289647899E+02     0.24546200760630E+02     0.19051670851175E+01
H    0.25653478229290E+02     0.27149442127866E+02     0.80247031260376E+00