&CONTROL
  calculation       = 'cp-wf',
  title             = '(H2O)64 Molecule: CP electron minimization with Wannier (PBE0)',
  restart_mode      = 'from_scratch',
  pseudo_dir        = '/home/junteng/qe-5.4-mira/pseudopotentials/',
  outdir            = './',
  prefix            = 'w064',
  nstep             = 1000,
  iprint            = 1,
  isave             = 100,
  dt                = 4.D0,
  max_seconds       = 3300,
  ekin_conv_thr     = 1.D-5,
  etot_conv_thr     = 1.D-5,
/
&SYSTEM
  ibrav             = 1,
  celldm(1)         = 23.5170D0,
  nat               = 192,
  ntyp              = 2,
  ecutwfc           = 85.D0,
  input_dft         = 'PBE0',
/
&ELECTRONS
  emass             = 400.D0,
  emass_cutoff      = 3.D0,
  ortho_eps         = 1.D-8,
  ortho_max         = 300,
  electron_dynamics = 'damp',
  electron_damping  = 0.1D0,
/
&IONS
  ion_dynamics      = 'none', 
/
&WANNIER
  nit               = 60,
  calwf             = 3,
  tolw              = 1.D-6,
  nsteps            = 20,
  adapt             = .FALSE.
  wfdt              = 4.D0,
  wf_q              = 500,
  wf_friction       = 0.3D0,
  exx_ps_sl_self    = 12.0D0,
  exx_ps_sl_pair    = 10.0D0,
  exx_solver        = 'MG',
/
ATOMIC_SPECIES
O 16.0D0 O_HSCV_PBE-1.0.UPF
H  2.0D0 H_HSCV_PBE-1.0.UPF 
ATOMIC_POSITIONS {bohr}
O    0.18755200000000E+02     0.27255400000000E+00     0.69915000000000E+01
O    0.11735200000000E+02     0.11635500000000E+02     0.18739500000000E+02
O    0.14892200000000E+02     0.22124800000000E+01     0.17959600000000E+02
O    0.21859700000000E+02     0.17709600000000E+02     0.86593900000000E+01
O    0.12160600000000E+02     0.12721300000000E+02     0.63096500000000E+01
O   -0.32402400000000E+01     0.25835900000000E+02     0.16071900000000E+02
O    0.13398600000000E+02     0.46819800000000E+01     0.76718100000000E+01
O    0.65958300000000E+00     0.22154400000000E+02     0.84569500000000E+01
O    0.27771700000000E+02     0.11470500000000E+02     0.13001700000000E+02
O    0.14971900000000E+02     0.16397000000000E+02     0.95133100000000E+01
O    0.26296700000000E+01     0.19408300000000E+02     0.21901600000000E+02
O    0.50909000000000E+01     0.28095600000000E+01     0.19252300000000E+02
O    0.93672700000000E+01    -0.28613700000000E+00     0.72515900000000E+01
O    0.19961700000000E+02     0.13925200000000E+02     0.11481600000000E+02
O    0.25008400000000E+01    -0.38748700000000E+01     0.32661800000000E+01
O   -0.66786000000000E+00     0.15030700000000E+02     0.41185500000000E+01
O    0.93801900000000E+01     0.15394600000000E+02     0.22443500000000E+01
O    0.36124300000000E+01     0.23987700000000E+02     0.13002400000000E+02
O    0.14592100000000E+02     0.60113000000000E+00     0.22663000000000E+02
O    0.61999400000000E+01     0.63993700000000E+01     0.54843300000000E+01
O    0.90031700000000E+01     0.24197400000000E+02     0.12461600000000E+02
O    0.16972300000000E+02     0.16085800000000E+02     0.29734400000000E+01
O    0.64795000000000E+01    -0.39418400000000E+00     0.22745100000000E+02
O    0.47648200000000E+01     0.13871500000000E+02     0.23875200000000E+02
O    0.10801600000000E+02     0.20798000000000E+02     0.21923700000000E+02
O    0.57092400000000E+01     0.18552300000000E+02     0.99072900000000E+01
O    0.78774400000000E+01     0.99445100000000E+01     0.97036700000000E+01
O    0.21670700000000E+02     0.12023800000000E+02     0.15748000000000E+02
O    0.15519000000000E+02     0.89972700000000E+01     0.58717200000000E+01
O   -0.90971900000000E+00     0.22061200000000E+02    -0.47075000000000E+01
O    0.33851000000000E+01     0.12480600000000E+02     0.51498000000000E+01
O    0.18991500000000E+02     0.21011700000000E+02     0.11715100000000E+02
O    0.20079900000000E+02     0.99292400000000E+01     0.81812500000000E+01
O    0.18350900000000E+02     0.20612500000000E+02     0.43727500000000E-01
O    0.20130200000000E+01     0.72339800000000E+01     0.14766800000000E+02
O   -0.16205800000000E+01     0.22961700000000E+02     0.22587300000000E+01
O    0.13003300000000E+02     0.66417200000000E+01     0.16129400000000E+02
O    0.87968700000000E+01     0.64395000000000E+01    -0.49403900000000E+01
O    0.62376300000000E+01     0.18205700000000E+02     0.18266300000000E+02
O   -0.36298300000000E+01     0.16573500000000E+02    -0.29225300000000E+01
O    0.14869200000000E+02     0.10140800000000E+02     0.23536900000000E+02
O    0.23332400000000E+02    -0.34696100000000E+01     0.14422900000000E+02
O    0.15998300000000E+02     0.15278800000000E+01     0.12098300000000E+02
O    0.14259000000000E+02    -0.24249800000000E+01     0.29847400000000E+02
O    0.13812700000000E+02     0.16305500000000E+02    -0.66916300000000E+00
O   -0.21027800000000E+01     0.46159800000000E+01     0.79664500000000E+01
O    0.19596000000000E+02     0.74902900000000E+01     0.16258800000000E+02
O    0.25733900000000E+02     0.16213000000000E+02     0.12106700000000E+02
O    0.10309400000000E+01     0.14818800000000E+02    -0.48489000000000E+01
O    0.72494600000000E+01     0.18617200000000E+02     0.54148600000000E+01
O    0.24859900000000E+02     0.68095600000000E+01     0.28538200000000E+02
O    0.84672200000000E+01     0.23997200000000E+01     0.26665700000000E+02
O   -0.36084200000000E+01     0.12320200000000E+02     0.10235100000000E+01
O    0.11469400000000E+02     0.21828800000000E+02     0.16415200000000E+02
O    0.19016600000000E+02     0.31588300000000E+02     0.21628400000000E+02
O   -0.71107100000000E+01     0.14284500000000E+02     0.17265000000000E+02
O    0.51141100000000E+01     0.99649600000000E+01     0.20081200000000E+02
O    0.13829700000000E+02     0.17917000000000E+02     0.14448100000000E+02
O    0.24934000000000E+02     0.65877700000000E+01     0.20039500000000E+02
O    0.10836200000000E+02     0.58182000000000E+01     0.11922900000000E+02
O    0.22551800000000E+02     0.54591000000000E+01     0.75088500000000E+00
O    0.79932600000000E+01     0.14070700000000E+02     0.15951000000000E+02
O    0.13103700000000E+02     0.44653700000000E+01     0.21336000000000E+01
O   -0.25196500000000E+00     0.36170200000000E+01     0.12128600000000E+02
H    0.19208200000000E+02    -0.10450900000000E+01     0.81702400000000E+01
H    0.13049800000000E+02     0.12886800000000E+02     0.18729200000000E+02
H    0.13921000000000E+02     0.39056300000000E+01     0.17721700000000E+02
H    0.22318300000000E+02     0.19407700000000E+02     0.84464600000000E+01
H    0.10877400000000E+02     0.11739700000000E+02     0.72376000000000E+01
H    0.21046700000000E+02     0.24429100000000E+02     0.16904000000000E+02
H    0.14623700000000E+02     0.59293800000000E+01     0.69531000000000E+01
H    0.23503400000000E+01     0.21547900000000E+02     0.87881700000000E+01
H    0.29138900000000E+02     0.11948600000000E+02     0.14113200000000E+02
H    0.14259900000000E+02     0.15372600000000E+02     0.81721800000000E+01
H    0.40099900000000E+01     0.18627500000000E+02     0.20846800000000E+02
H    0.29194100000000E+02     0.14868600000000E+01     0.20409200000000E+02
H    0.94379400000000E+01     0.57593700000000E+00     0.88629700000000E+01
H    0.20448900000000E+02     0.12277800000000E+02     0.10715800000000E+02
H    0.40737500000000E+01     0.19489400000000E+02     0.41763700000000E+01
H   -0.21791800000000E+00     0.16301900000000E+02     0.28544500000000E+01
H    0.10815000000000E+02     0.15703200000000E+02     0.11653200000000E+01
H    0.26433600000000E+02     0.22275000000000E+02     0.13110500000000E+02
H    0.15893600000000E+02    -0.45647000000000E+00     0.23307100000000E+02
H    0.68829400000000E+01     0.73868600000000E+01     0.68748900000000E+01
H    0.95616400000000E+01     0.23067200000000E+02     0.13854200000000E+02
H    0.16164000000000E+02     0.16111300000000E+02     0.45295100000000E+01
H    0.50014500000000E+01    -0.15826200000000E+01     0.22584100000000E+02
H    0.35664500000000E+01     0.14788300000000E+02     0.22988000000000E+02
H    0.10680500000000E+02     0.21161600000000E+02    -0.34044000000000E+01
H    0.63876600000000E+01     0.18172700000000E+02     0.81958000000000E+01
H    0.64638300000000E+01     0.10376300000000E+02     0.10796700000000E+02
H    0.21095300000000E+02     0.10347300000000E+02     0.15559300000000E+02
H    0.15703500000000E+02     0.89262400000000E+01     0.39751900000000E+01
H   -0.26363000000000E+01     0.21656800000000E+02    -0.44675100000000E+01
H    0.48689500000000E+01     0.12377300000000E+02     0.62141300000000E+01
H    0.18322400000000E+02     0.19501800000000E+02     0.12549500000000E+02
H    0.20537100000000E+02     0.81330900000000E+01     0.80169700000000E+01
H    0.19822100000000E+02     0.21659000000000E+02     0.24153900000000E+02
H    0.17154700000000E+01     0.73482900000000E+01     0.16550300000000E+02
H    0.23477600000000E+02     0.22170100000000E+02     0.29022000000000E+01
H    0.11348400000000E+02     0.65591400000000E+01     0.17092200000000E+02
H    0.76253800000000E+01     0.51045900000000E+01    -0.52124000000000E+01
H    0.69787400000000E+01     0.16680500000000E+02     0.17543000000000E+02
H   -0.19484700000000E+01     0.16576100000000E+02    -0.36706200000000E+01
H    0.14461200000000E+02     0.11477000000000E+02     0.22432100000000E+02
H    0.21950200000000E+02    -0.30606100000000E+01     0.13350100000000E+02
H    0.14192300000000E+02     0.14037700000000E+01     0.12580500000000E+02
H    0.12631000000000E+02    -0.17788000000000E+01     0.30339000000000E+02
H    0.13276100000000E+02     0.17997600000000E+02    -0.11274300000000E+01
H   -0.13526600000000E+01     0.45826500000000E+01     0.97607600000000E+01
H    0.17833500000000E+02     0.75488400000000E+01     0.15863800000000E+02
H    0.24601900000000E+02     0.16600000000000E+02     0.10783800000000E+02
H    0.22487500000000E+01     0.15625800000000E+02    -0.59253300000000E+01
H    0.82826200000000E+01     0.20119000000000E+02     0.55444700000000E+01
H    0.24902200000000E+02     0.85082800000000E+01     0.29259600000000E+02
H    0.73491700000000E+01     0.16478000000000E+01     0.18366900000000E+01
H   -0.42044700000000E+01     0.13319500000000E+02    -0.35770700000000E+00
H    0.12480100000000E+02     0.23283700000000E+02     0.16972100000000E+02
H    0.19461800000000E+02     0.31296400000000E+02     0.19828700000000E+02
H   -0.60421500000000E+01     0.14999200000000E+02     0.18564500000000E+02
H    0.28496000000000E+02     0.10899500000000E+02     0.21559800000000E+02
H    0.13913200000000E+02     0.17253300000000E+02     0.12785400000000E+02
H    0.26014800000000E+02     0.49867100000000E+01     0.20223800000000E+02
H    0.10025900000000E+02     0.42524200000000E+01     0.12217700000000E+02
H    0.23414300000000E+02     0.63250300000000E+01     0.21330600000000E+01
H    0.90569900000000E+01     0.13094500000000E+02     0.17069000000000E+02
H    0.12958000000000E+02     0.60672600000000E+01     0.14253800000000E+01
H    0.21717100000000E+02     0.31554800000000E+01     0.13040900000000E+02
H    0.17029200000000E+02    -0.34989200000000E+00     0.65771500000000E+01
H    0.12526500000000E+02     0.10186700000000E+02     0.18014300000000E+02
H    0.15197900000000E+02     0.25110500000000E+02     0.19628300000000E+02
H    0.22243100000000E+02     0.16623400000000E+02     0.72269700000000E+01
H    0.11306400000000E+02     0.13226900000000E+02     0.48383800000000E+01
H    0.18458400000000E+02     0.25637200000000E+02     0.16170600000000E+02
H    0.12697200000000E+02     0.40888700000000E+01     0.61237900000000E+01
H    0.68482800000000E+00     0.23952400000000E+02     0.88502600000000E+01
H    0.27002400000000E+02     0.13021400000000E+02     0.12738500000000E+02
H    0.16392800000000E+02     0.15490500000000E+02     0.10010300000000E+02
H    0.13978100000000E+01     0.20200500000000E+02     0.20774200000000E+02
H    0.48472900000000E+01     0.25641800000000E+02     0.17642000000000E+02
H    0.91015700000000E+01     0.97665400000000E+00     0.58188500000000E+01
H    0.20844800000000E+02     0.15330800000000E+02     0.10596100000000E+02
H    0.29044700000000E+01    -0.40596300000000E+01     0.15000800000000E+01
H   -0.18191800000000E+01     0.13951700000000E+02     0.32096300000000E+01
H    0.79892200000000E+01     0.14813500000000E+02     0.12738100000000E+01
H    0.21943500000000E+01     0.25084000000000E+02     0.12827100000000E+02
H    0.14301000000000E+02     0.21811900000000E+01     0.23704700000000E+02
H    0.43916800000000E+01     0.67539600000000E+01     0.54973000000000E+01
H    0.72043500000000E+01     0.24387200000000E+02     0.12635600000000E+02
H    0.17643400000000E+02     0.14404000000000E+02     0.26280300000000E+01
H    0.81032900000000E+01    -0.12571400000000E+01     0.22629700000000E+02
H    0.39418200000000E+01     0.13300800000000E+02     0.25471100000000E+02
H    0.11866200000000E+02     0.22174500000000E+02     0.22455200000000E+02
H    0.68663700000000E+01     0.19487500000000E+02     0.10849700000000E+02
H    0.87954800000000E+01     0.87604900000000E+01     0.10807100000000E+02
H    0.21213400000000E+02     0.12987600000000E+02     0.14256500000000E+02
H    0.14398500000000E+02     0.10374500000000E+02     0.61676700000000E+01
H   -0.59111000000000E+00     0.21240900000000E+02     0.17182400000000E+02
H    0.21137800000000E+01     0.13595100000000E+02     0.55316400000000E+01
H    0.17903100000000E+02     0.22454800000000E+02     0.12287200000000E+02
H    0.18352400000000E+02     0.99872700000000E+01     0.74367900000000E+01
H    0.17664400000000E+02     0.19735800000000E+02     0.24954600000000E+02
H    0.24146900000000E+01     0.87898800000000E+01     0.13990000000000E+02
H   -0.25418200000000E+01    -0.28536500000000E+00     0.27353100000000E+02
H    0.12626600000000E+02     0.61196700000000E+01     0.14381900000000E+02
H    0.77823900000000E+01     0.77954700000000E+01    -0.42774100000000E+01
H    0.74739500000000E+01     0.19470900000000E+02     0.17846900000000E+02
H   -0.37257900000000E+01     0.18056800000000E+02    -0.19326400000000E+01
H    0.15709900000000E+02     0.88979100000000E+01     0.22509900000000E+02
H    0.23863100000000E+02    -0.50711600000000E+01     0.13836300000000E+02
H    0.15947500000000E+02     0.21356200000000E+01     0.10405100000000E+02
H    0.14693600000000E+02    -0.37257600000000E+01     0.31103800000000E+02
H    0.15217200000000E+02     0.16643500000000E+02     0.53959100000000E+00
H    0.20070500000000E+02     0.34362800000000E+01     0.79562800000000E+01
H    0.20017500000000E+02     0.57295000000000E+01     0.16016200000000E+02
H    0.27334200000000E+02     0.17012400000000E+02     0.11633600000000E+02
H    0.17182100000000E+00     0.13471800000000E+02    -0.56986400000000E+01
H    0.81807700000000E+01     0.17332200000000E+02     0.45329800000000E+01
H   -0.69221700000000E-01     0.58931200000000E+01     0.58426000000000E+01
H    0.75179300000000E+01     0.37101500000000E+01     0.39311200000000E+01
H   -0.40015800000000E+01     0.10757400000000E+02     0.32739900000000E+00
H    0.12444500000000E+02     0.20707000000000E+02     0.15453300000000E+02
H    0.20047400000000E+02     0.30184600000000E+02     0.22328500000000E+02
H   -0.61326400000000E+01     0.12997800000000E+02     0.16427600000000E+02
H    0.34832800000000E+01     0.90781500000000E+01     0.19672800000000E+02
H    0.14666800000000E+02     0.16790200000000E+02     0.15570600000000E+02
H    0.23997800000000E+02     0.66455000000000E+01     0.21650500000000E+02
H    0.11473700000000E+02     0.55573200000000E+01     0.10237800000000E+02
H    0.22471400000000E+02     0.36625200000000E+01     0.10996400000000E+01
H    0.91923100000000E+01     0.14717200000000E+02     0.14731000000000E+02
H    0.11294800000000E+02     0.39161900000000E+01     0.25747200000000E+02
H    0.56103900000000E+00     0.48563400000000E+01     0.13257400000000E+02
