&CONTROL
  calculation       = 'cp-wf',
  title             = "(H2O)32 Molecule: CP NVT MD with PBE0 at 300 K",
  restart_mode      = "restart",
  pseudo_dir        = '/home/junteng/qe-5.4-mira/pseudopotentials/',
  outdir            = './',
  prefix            = 'w032',
  nstep             = 50,
  iprint            = 1,
  isave             = 100,
  dt                = 2.D0,
  max_seconds       = 3300,
  ndr               = 51,
  ndw               = 52,
  tprnfor           = .TRUE.,
/
&SYSTEM
  ibrav             = 1,
  celldm(1)         = 18.6655d0,
  nat               = 96,
  ntyp              = 2,
  ecutwfc           = 85.D0,
  input_dft         = 'PBE0',
/
&ELECTRONS
  electron_dynamics = "verlet",
  emass             = 100.D0,
  emass_cutoff      = 10.D0,
/
&IONS
  ion_dynamics      = "verlet",
  ion_temperature   = 'nose',
  fnosep            = 60,
  tempw             = 300.0,
  nhpcl             = 4,
  nhptyp            = 2,
  ndega             = -3,
/
&WANNIER
  nit               = 60,
  calwf             = 3,
  tolw              = 1.D-6,
  nsteps            = 20,
  adapt             = .FALSE.
  wfdt              = 4.D0,
  wf_q              = 500,
  wf_friction       = 0.3D0,
  exx_ps_sl_self    = 12.0D0,
  exx_ps_sl_pair    = 10.0D0,
  exx_solver        = 'PCG',
/
ATOMIC_SPECIES
O 16.0D0 O_HSCV_PBE-1.0.UPF
H  2.0D0 H_HSCV_PBE-1.0.UPF 
ATOMIC_POSITIONS {bohr}
O    0.16115500000000E+02    -0.21906700000000E+02     0.97672200000000E+02
O    0.11535400000000E+02    -0.10947300000000E+02     0.92713400000000E+02
O    0.22991200000000E+02    -0.32624600000000E+02     0.80239500000000E+02
O    0.71127700000000E+01    -0.28170900000000E+02     0.92139600000000E+02
O    0.94987500000000E+01    -0.20522900000000E+02     0.94523300000000E+02
O    0.16614700000000E+02    -0.17437400000000E+02     0.86715700000000E+02
O   -0.25094000000000E+00    -0.32047100000000E+02     0.93581100000000E+02
O    0.17469200000000E+02    -0.24812800000000E+02     0.91772600000000E+02
O    0.95241500000000E+01    -0.34655800000000E+02     0.88823200000000E+02
O    0.86466700000000E+01    -0.23127000000000E+02     0.80473000000000E+02
O    0.36615600000000E+01    -0.29162100000000E+02     0.95102700000000E+02
O    0.20994300000000E+02    -0.22003300000000E+02     0.94398000000000E+02
O    0.13729200000000E+02    -0.21798100000000E+02     0.86691800000000E+02
O    0.15328800000000E+02    -0.31839300000000E+02     0.89628700000000E+02
O    0.49480300000000E+01    -0.32134500000000E+02     0.86140100000000E+02
O    0.19106100000000E+02    -0.28885300000000E+02     0.88403200000000E+02
O    0.56709100000000E+01    -0.20621000000000E+02     0.91015300000000E+02
O    0.12086300000000E+02    -0.41887700000000E+02     0.91442500000000E+02
O    0.12404700000000E+02    -0.26504100000000E+02     0.97555400000000E+02
O    0.10641400000000E+02    -0.15725800000000E+02     0.76697100000000E+02
O    0.10104400000000E+02    -0.19437800000000E+02     0.83896400000000E+02
O    0.16785300000000E+02    -0.25509200000000E+02     0.85375900000000E+02
O    0.17737300000000E+02    -0.33450200000000E+02     0.82239200000000E+02
O    0.87846200000000E+01    -0.34029400000000E+02     0.81163300000000E+02
O    0.20335500000000E+02    -0.22655000000000E+02     0.10223900000000E+03
O    0.14653500000000E+02    -0.29344700000000E+02     0.10139000000000E+03
O    0.39486200000000E+01    -0.24674200000000E+02     0.98203400000000E+02
O    0.22538500000000E+01    -0.34988000000000E+02     0.89772700000000E+02
O    0.24790200000000E+02    -0.21673500000000E+02     0.86279900000000E+02
O    0.15698800000000E+02    -0.16475400000000E+02     0.96577500000000E+02
O    0.26331200000000E+02    -0.26456600000000E+02     0.86658800000000E+02
O    0.10426000000000E+02    -0.30654900000000E+02     0.84468000000000E+02
H    0.16323000000000E+02    -0.22057300000000E+02     0.99444200000000E+02
H    0.17805500000000E+02    -0.22052000000000E+02     0.96880900000000E+02
H    0.11264800000000E+02    -0.12795200000000E+02     0.93484300000000E+02
H    0.12783800000000E+02    -0.11097400000000E+02     0.91358800000000E+02
H    0.22615100000000E+02    -0.31097300000000E+02     0.78995100000000E+02
H    0.21289700000000E+02    -0.33353500000000E+02     0.80136300000000E+02
H    0.88744400000000E+01    -0.28650000000000E+02     0.92204500000000E+02
H    0.67381200000000E+01    -0.27809200000000E+02     0.90354400000000E+02
H    0.11025500000000E+02    -0.21181700000000E+02     0.93585400000000E+02
H    0.10053800000000E+02    -0.18739800000000E+02     0.94771200000000E+02
H    0.17089900000000E+02    -0.16687100000000E+02     0.85066300000000E+02
H    0.18243400000000E+02    -0.17453800000000E+02     0.87831500000000E+02
H    0.77125400000000E+00    -0.33440800000000E+02     0.92850400000000E+02
H   -0.13444300000000E+01    -0.31981600000000E+02     0.92151100000000E+02
H    0.17976600000000E+02    -0.26316900000000E+02     0.90895600000000E+02
H    0.15696700000000E+02    -0.24455100000000E+02     0.91412200000000E+02
H    0.92762900000000E+01    -0.36419400000000E+02     0.88523400000000E+02
H    0.89379500000000E+01    -0.34298700000000E+02     0.90486600000000E+02
H    0.89592600000000E+01    -0.22445900000000E+02     0.78616300000000E+02
H    0.96741900000000E+01    -0.24695100000000E+02     0.80326400000000E+02
H    0.22427700000000E+01    -0.29899100000000E+02     0.94126800000000E+02
H    0.48860800000000E+01    -0.28868000000000E+02     0.93774200000000E+02
H    0.19714200000000E+02    -0.22948700000000E+02     0.93611500000000E+02
H    0.21652000000000E+02    -0.22956400000000E+02     0.95845600000000E+02
H    0.12531000000000E+02    -0.20831800000000E+02     0.85599700000000E+02
H    0.14986200000000E+02    -0.20438000000000E+02     0.86854800000000E+02
H    0.16764800000000E+02    -0.30766000000000E+02     0.89014600000000E+02
H    0.15479200000000E+02    -0.33493700000000E+02     0.88721100000000E+02
H    0.47408500000000E+01    -0.32317400000000E+02     0.84322400000000E+02
H    0.66585400000000E+01    -0.32636600000000E+02     0.86497100000000E+02
H    0.20699400000000E+02    -0.29497400000000E+02     0.87624300000000E+02
H    0.18241900000000E+02    -0.27830000000000E+02     0.87234100000000E+02
H    0.69484400000000E+01    -0.20535300000000E+02     0.92366100000000E+02
H    0.43062400000000E+01    -0.21416800000000E+02     0.92137900000000E+02
H    0.12502400000000E+02    -0.41428400000000E+02     0.89550100000000E+02
H    0.10920200000000E+02    -0.43186800000000E+02     0.91345800000000E+02
H    0.13457900000000E+02    -0.25121800000000E+02     0.96981100000000E+02
H    0.11911800000000E+02    -0.27632200000000E+02     0.96098200000000E+02
H    0.98669100000000E+01    -0.15303500000000E+02     0.78580700000000E+02
H    0.12517400000000E+02    -0.15986700000000E+02     0.76917000000000E+02
H    0.97138500000000E+01    -0.17788500000000E+02     0.83136700000000E+02
H    0.94784800000000E+01    -0.20537700000000E+02     0.82608900000000E+02
H    0.18229500000000E+02    -0.24517200000000E+02     0.84674900000000E+02
H    0.15538000000000E+02    -0.24205700000000E+02     0.85935800000000E+02
H    0.16676500000000E+02    -0.32031400000000E+02     0.82501200000000E+02
H    0.16892700000000E+02    -0.34270500000000E+02     0.80756400000000E+02
H    0.69537300000000E+01    -0.33709700000000E+02     0.80944500000000E+02
H    0.91484100000000E+01    -0.32575400000000E+02     0.82290700000000E+02
H    0.21725900000000E+02    -0.22265600000000E+02     0.10338800000000E+03
H    0.21125900000000E+02    -0.23441700000000E+02     0.10074700000000E+03
H    0.14257300000000E+02    -0.28577300000000E+02     0.99627300000000E+02
H    0.15161200000000E+02    -0.27788000000000E+02     0.10222900000000E+03
H    0.56920900000000E+01    -0.24652400000000E+02     0.98808100000000E+02
H    0.33514600000000E+01    -0.26335500000000E+02     0.97706200000000E+02
H    0.34462700000000E+01    -0.36127900000000E+02     0.90536800000000E+02
H    0.32896300000000E+01    -0.34010300000000E+02     0.88610200000000E+02
H    0.26192100000000E+02    -0.20735400000000E+02     0.85692000000000E+02
H    0.24818900000000E+02    -0.21432700000000E+02     0.88079500000000E+02
H    0.16879000000000E+02    -0.15631100000000E+02     0.95272300000000E+02
H    0.15867200000000E+02    -0.18318100000000E+02     0.96720300000000E+02
H    0.25902300000000E+02    -0.24719700000000E+02     0.86187200000000E+02
H    0.27198800000000E+02    -0.27406300000000E+02     0.85341600000000E+02
H    0.10923400000000E+02    -0.31391500000000E+02     0.86097500000000E+02
H    0.12225900000000E+02    -0.30308000000000E+02     0.83613300000000E+02
